p cnf 959 2460
51 -692 -1 0
-51 692 0
-51 1 0
52 -51 -693 0
-52 51 0
-52 693 0
53 -5 -4 0
-53 5 0
-53 4 0
54 -53 -6 0
-54 53 0
-54 6 0
55 -694 -695 0
-55 694 0
-55 695 0
56 -696 -697 0
-56 696 0
-56 697 0
57 -56 -9 0
-57 56 0
-57 9 0
58 -698 -55 0
-58 698 0
-58 55 0
59 -11 -10 0
-59 11 0
-59 10 0
60 -59 -699 0
-60 59 0
-60 699 0
61 -700 -58 0
-61 700 0
-61 58 0
62 -701 -13 0
-62 701 0
-62 13 0
63 -62 -702 0
-63 62 0
-63 702 0
64 -703 -61 0
-64 703 0
-64 61 0
65 -704 -705 0
-65 704 0
-65 705 0
66 -65 -706 0
-66 65 0
-66 706 0
67 -707 -64 0
-67 707 0
-67 64 0
68 -708 -701 0
-68 708 0
-68 701 0
69 -68 -3 0
-69 68 0
-69 3 0
70 -709 -67 0
-70 709 0
-70 67 0
71 -21 -710 0
-71 21 0
-71 710 0
72 -71 -5 0
-72 71 0
-72 5 0
73 -711 -70 0
-73 711 0
-73 70 0
74 -6 -692 0
-74 6 0
-74 692 0
75 -74 -18 0
-75 74 0
-75 18 0
76 -712 -73 0
-76 712 0
-76 73 0
77 -22 -20 0
-77 22 0
-77 20 0
78 -77 -18 0
-78 77 0
-78 18 0
79 -713 -76 0
-79 713 0
-79 76 0
80 -14 -6 0
-80 14 0
-80 6 0
81 -80 -714 0
-81 80 0
-81 714 0
82 -715 -79 0
-82 715 0
-82 79 0
83 -716 -24 0
-83 716 0
-83 24 0
84 -83 -11 0
-84 83 0
-84 11 0
85 -717 -82 0
-85 717 0
-85 82 0
86 -26 -718 0
-86 26 0
-86 718 0
87 -86 -3 0
-87 86 0
-87 3 0
88 -719 -85 0
-88 719 0
-88 85 0
89 -720 -721 0
-89 720 0
-89 721 0
90 -89 -693 0
-90 89 0
-90 693 0
91 -722 -88 0
-91 722 0
-91 88 0
92 -723 -21 0
-92 723 0
-92 21 0
93 -92 -15 0
-93 92 0
-93 15 0
94 -724 -91 0
-94 724 0
-94 91 0
95 -725 -28 0
-95 725 0
-95 28 0
96 -95 -11 0
-96 95 0
-96 11 0
97 -726 -94 0
-97 726 0
-97 94 0
98 -15 -11 0
-98 15 0
-98 11 0
99 -98 -693 0
-99 98 0
-99 693 0
100 -727 -97 0
-100 727 0
-100 97 0
101 -30 -25 0
-101 30 0
-101 25 0
102 -101 -31 0
-102 101 0
-102 31 0
103 -728 -100 0
-103 728 0
-103 100 0
104 -33 -729 0
-104 33 0
-104 729 0
105 -104 -22 0
-105 104 0
-105 22 0
106 -730 -103 0
-106 730 0
-106 103 0
107 -34 -731 0
-107 34 0
-107 731 0
108 -107 -732 0
-108 107 0
-108 732 0
109 -733 -106 0
-109 733 0
-109 106 0
110 -23 -696 0
-110 23 0
-110 696 0
111 -110 -11 0
-111 110 0
-111 11 0
112 -734 -109 0
-112 734 0
-112 109 0
113 -735 -736 0
-113 735 0
-113 736 0
114 -113 -737 0
-114 113 0
-114 737 0
115 -738 -112 0
-115 738 0
-115 112 0
116 -38 -696 0
-116 38 0
-116 696 0
117 -116 -704 0
-117 116 0
-117 704 0
118 -739 -115 0
-118 739 0
-118 115 0
119 -705 -701 0
-119 705 0
-119 701 0
120 -119 -740 0
-120 119 0
-120 740 0
121 -741 -118 0
-121 741 0
-121 118 0
122 -742 -24 0
-122 742 0
-122 24 0
123 -122 -716 0
-123 122 0
-123 716 0
124 -743 -121 0
-124 743 0
-124 121 0
125 -701 -9 0
-125 701 0
-125 9 0
126 -125 -18 0
-126 125 0
-126 18 0
127 -744 -124 0
-127 744 0
-127 124 0
128 -34 -17 0
-128 34 0
-128 17 0
129 -128 -745 0
-129 128 0
-129 745 0
130 -746 -127 0
-130 746 0
-130 127 0
131 -30 -697 0
-131 30 0
-131 697 0
132 -131 -31 0
-132 131 0
-132 31 0
133 -747 -130 0
-133 747 0
-133 130 0
134 -39 -732 0
-134 39 0
-134 732 0
135 -134 -3 0
-135 134 0
-135 3 0
136 -748 -133 0
-136 748 0
-136 133 0
137 -749 -705 0
-137 749 0
-137 705 0
138 -137 -10 0
-138 137 0
-138 10 0
139 -750 -136 0
-139 750 0
-139 136 0
140 -40 -20 0
-140 40 0
-140 20 0
141 -140 -4 0
-141 140 0
-141 4 0
142 -751 -139 0
-142 751 0
-142 139 0
143 -41 -28 0
-143 41 0
-143 28 0
144 -143 -699 0
-144 143 0
-144 699 0
145 -752 -142 0
-145 752 0
-145 142 0
146 -735 -17 0
-146 735 0
-146 17 0
147 -146 -737 0
-147 146 0
-147 737 0
148 -753 -145 0
-148 753 0
-148 145 0
149 -754 -755 0
-149 754 0
-149 755 0
150 -149 -756 0
-150 149 0
-150 756 0
151 -757 -148 0
-151 757 0
-151 148 0
152 -758 -1 0
-152 758 0
-152 1 0
153 -152 -759 0
-153 152 0
-153 759 0
154 -760 -151 0
-154 760 0
-154 151 0
155 -720 -697 0
-155 720 0
-155 697 0
156 -155 -736 0
-156 155 0
-156 736 0
157 -761 -154 0
-157 761 0
-157 154 0
158 -762 -42 0
-158 762 0
-158 42 0
159 -158 -763 0
-159 158 0
-159 763 0
160 -764 -157 0
-160 764 0
-160 157 0
161 -34 -29 0
-161 34 0
-161 29 0
162 -161 -45 0
-162 161 0
-162 45 0
163 -765 -160 0
-163 765 0
-163 160 0
164 -46 -754 0
-164 46 0
-164 754 0
165 -164 -47 0
-165 164 0
-165 47 0
166 -766 -163 0
-166 766 0
-166 163 0
167 -43 -720 0
-167 43 0
-167 720 0
168 -167 -21 0
-168 167 0
-168 21 0
169 -767 -166 0
-169 767 0
-169 166 0
170 -43 -26 0
-170 43 0
-170 26 0
171 -170 -2 0
-171 170 0
-171 2 0
172 -768 -169 0
-172 768 0
-172 169 0
173 -758 -7 0
-173 758 0
-173 7 0
174 -173 -693 0
-174 173 0
-174 693 0
175 -769 -172 0
-175 769 0
-175 172 0
176 -32 -718 0
-176 32 0
-176 718 0
177 -176 -770 0
-177 176 0
-177 770 0
178 -771 -175 0
-178 771 0
-178 175 0
179 -48 -35 0
-179 48 0
-179 35 0
180 -179 -31 0
-180 179 0
-180 31 0
181 -772 -178 0
-181 772 0
-181 178 0
182 -754 -773 0
-182 754 0
-182 773 0
183 -182 -693 0
-183 182 0
-183 693 0
184 -774 -181 0
-184 774 0
-184 181 0
185 -773 -692 0
-185 773 0
-185 692 0
186 -185 -770 0
-186 185 0
-186 770 0
187 -775 -184 0
-187 775 0
-187 184 0
188 -776 -773 0
-188 776 0
-188 773 0
189 -188 -723 0
-189 188 0
-189 723 0
190 -777 -187 0
-190 777 0
-190 187 0
191 -778 -759 0
-191 778 0
-191 759 0
192 -191 -708 0
-192 191 0
-192 708 0
193 -779 -190 0
-193 779 0
-193 190 0
194 -721 -692 0
-194 721 0
-194 692 0
195 -194 -17 0
-195 194 0
-195 17 0
196 -780 -193 0
-196 780 0
-196 193 0
197 -33 -24 0
-197 33 0
-197 24 0
198 -197 -2 0
-198 197 0
-198 2 0
199 -781 -196 0
-199 781 0
-199 196 0
200 -33 -8 0
-200 33 0
-200 8 0
201 -200 -782 0
-201 200 0
-201 782 0
202 -783 -199 0
-202 783 0
-202 199 0
203 -44 -34 0
-203 44 0
-203 34 0
204 -203 -740 0
-204 203 0
-204 740 0
205 -784 -202 0
-205 784 0
-205 202 0
206 -49 -785 0
-206 49 0
-206 785 0
207 -206 -732 0
-207 206 0
-207 732 0
208 -786 -205 0
-208 786 0
-208 205 0
209 -770 -4 0
-209 770 0
-209 4 0
210 -209 -732 0
-210 209 0
-210 732 0
211 -787 -208 0
-211 787 0
-211 208 0
212 -43 -704 0
-212 43 0
-212 704 0
213 -212 -37 0
-213 212 0
-213 37 0
214 -788 -211 0
-214 788 0
-214 211 0
215 -22 -5 0
-215 22 0
-215 5 0
216 -215 -35 0
-216 215 0
-216 35 0
217 -789 -214 0
-217 789 0
-217 214 0
218 -731 -32 0
-218 731 0
-218 32 0
219 -218 -756 0
-219 218 0
-219 756 0
220 -790 -217 0
-220 790 0
-220 217 0
221 -785 -6 0
-221 785 0
-221 6 0
222 -221 -35 0
-222 221 0
-222 35 0
223 -791 -220 0
-223 791 0
-223 220 0
224 -30 -14 0
-224 30 0
-224 14 0
225 -224 -708 0
-225 224 0
-225 708 0
226 -792 -223 0
-226 792 0
-226 223 0
227 -40 -720 0
-227 40 0
-227 720 0
228 -227 -699 0
-228 227 0
-228 699 0
229 -793 -226 0
-229 793 0
-229 226 0
230 -776 -745 0
-230 776 0
-230 745 0
231 -230 -3 0
-231 230 0
-231 3 0
232 -794 -229 0
-232 794 0
-232 229 0
233 -24 -5 0
-233 24 0
-233 5 0
234 -233 -50 0
-234 233 0
-234 50 0
235 -795 -232 0
-235 795 0
-235 232 0
236 -14 -697 0
-236 14 0
-236 697 0
237 -236 -35 0
-237 236 0
-237 35 0
238 -796 -235 0
-238 796 0
-238 235 0
239 -13 -696 0
-239 13 0
-239 696 0
240 -239 -785 0
-240 239 0
-240 785 0
241 -797 -238 0
-241 797 0
-241 238 0
242 -697 -721 0
-242 697 0
-242 721 0
243 -242 -740 0
-243 242 0
-243 740 0
244 -798 -241 0
-244 798 0
-244 241 0
245 -28 -720 0
-245 28 0
-245 720 0
246 -245 -6 0
-246 245 0
-246 6 0
247 -799 -244 0
-247 799 0
-247 244 0
248 -20 -800 0
-248 20 0
-248 800 0
249 -248 -35 0
-249 248 0
-249 35 0
250 -801 -247 0
-250 801 0
-250 247 0
251 -735 -26 0
-251 735 0
-251 26 0
252 -251 -3 0
-252 251 0
-252 3 0
253 -802 -250 0
-253 802 0
-253 250 0
254 -161 -721 0
-254 161 0
-254 721 0
255 -803 -253 0
-255 803 0
-255 253 0
256 -785 -35 0
-256 785 0
-256 35 0
257 -256 -18 0
-257 256 0
-257 18 0
258 -804 -255 0
-258 804 0
-258 255 0
259 -34 -13 0
-259 34 0
-259 13 0
260 -259 -702 0
-260 259 0
-260 702 0
261 -805 -258 0
-261 805 0
-261 258 0
262 -27 -759 0
-262 27 0
-262 759 0
263 -262 -45 0
-263 262 0
-263 45 0
264 -806 -261 0
-264 806 0
-264 261 0
265 -735 -800 0
-265 735 0
-265 800 0
266 -265 -725 0
-266 265 0
-266 725 0
267 -807 -264 0
-267 807 0
-267 264 0
268 -49 -723 0
-268 49 0
-268 723 0
269 -268 -35 0
-269 268 0
-269 35 0
270 -808 -267 0
-270 808 0
-270 267 0
271 -29 -723 0
-271 29 0
-271 723 0
272 -271 -19 0
-272 271 0
-272 19 0
273 -809 -270 0
-273 809 0
-273 270 0
274 -725 -22 0
-274 725 0
-274 22 0
275 -274 -702 0
-275 274 0
-275 702 0
276 -810 -273 0
-276 810 0
-276 273 0
277 -778 -8 0
-277 778 0
-277 8 0
278 -277 -45 0
-278 277 0
-278 45 0
279 -811 -276 0
-279 811 0
-279 276 0
280 -729 -716 0
-280 729 0
-280 716 0
281 -280 -732 0
-281 280 0
-281 732 0
282 -812 -279 0
-282 812 0
-282 279 0
283 -49 -11 0
-283 49 0
-283 11 0
284 -283 -47 0
-284 283 0
-284 47 0
285 -813 -282 0
-285 813 0
-285 282 0
286 -36 -814 0
-286 36 0
-286 814 0
287 -286 -696 0
-287 286 0
-287 696 0
288 -815 -285 0
-288 815 0
-288 285 0
289 -20 -755 0
-289 20 0
-289 755 0
290 -289 -756 0
-290 289 0
-290 756 0
291 -816 -288 0
-291 816 0
-291 288 0
292 -45 -701 0
-292 45 0
-292 701 0
293 -292 -12 0
-293 292 0
-293 12 0
294 -817 -291 0
-294 817 0
-294 291 0
295 -45 -714 0
-295 45 0
-295 714 0
296 -295 -693 0
-296 295 0
-296 693 0
297 -818 -294 0
-297 818 0
-297 294 0
298 -785 -12 0
-298 785 0
-298 12 0
299 -298 -740 0
-299 298 0
-299 740 0
300 -819 -297 0
-300 819 0
-300 297 0
301 -820 -2 0
-301 820 0
-301 2 0
302 -301 -18 0
-302 301 0
-302 18 0
303 -821 -300 0
-303 821 0
-303 300 0
304 -720 -759 0
-304 720 0
-304 759 0
305 -304 -21 0
-305 304 0
-305 21 0
306 -822 -303 0
-306 822 0
-306 303 0
307 -41 -718 0
-307 41 0
-307 718 0
308 -307 -39 0
-308 307 0
-308 39 0
309 -823 -306 0
-309 823 0
-309 306 0
310 -25 -778 0
-310 25 0
-310 778 0
311 -310 -35 0
-311 310 0
-311 35 0
312 -824 -309 0
-312 824 0
-312 309 0
313 -43 -4 0
-313 43 0
-313 4 0
314 -313 -785 0
-314 313 0
-314 785 0
315 -825 -312 0
-315 825 0
-315 312 0
316 -826 -720 0
-316 826 0
-316 720 0
317 -316 -702 0
-317 316 0
-317 702 0
318 -827 -315 0
-318 827 0
-318 315 0
319 -8 -2 0
-319 8 0
-319 2 0
320 -319 -714 0
-320 319 0
-320 714 0
321 -828 -318 0
-321 828 0
-321 318 0
322 -16 -6 0
-322 16 0
-322 6 0
323 -322 -37 0
-323 322 0
-323 37 0
324 -829 -321 0
-324 829 0
-324 321 0
325 -723 -7 0
-325 723 0
-325 7 0
326 -325 -721 0
-326 325 0
-326 721 0
327 -830 -324 0
-327 830 0
-327 324 0
328 -40 -38 0
-328 40 0
-328 38 0
329 -328 -770 0
-329 328 0
-329 770 0
330 -831 -327 0
-330 831 0
-330 327 0
331 -236 -706 0
-331 236 0
-331 706 0
332 -832 -330 0
-332 832 0
-332 330 0
333 -763 -41 0
-333 763 0
-333 41 0
334 -333 -23 0
-334 333 0
-334 23 0
335 -833 -332 0
-335 833 0
-335 332 0
336 -723 -696 0
-336 723 0
-336 696 0
337 -336 -3 0
-337 336 0
-337 3 0
338 -834 -335 0
-338 834 0
-338 335 0
339 -725 -755 0
-339 725 0
-339 755 0
340 -339 -782 0
-340 339 0
-340 782 0
341 -835 -338 0
-341 835 0
-341 338 0
342 -731 -718 0
-342 731 0
-342 718 0
343 -342 -716 0
-343 342 0
-343 716 0
344 -836 -341 0
-344 836 0
-344 341 0
345 -837 -716 0
-345 837 0
-345 716 0
346 -345 -745 0
-346 345 0
-346 745 0
347 -838 -344 0
-347 838 0
-347 344 0
348 -756 -759 0
-348 756 0
-348 759 0
349 -348 -15 0
-349 348 0
-349 15 0
350 -839 -347 0
-350 839 0
-350 347 0
351 -42 -33 0
-351 42 0
-351 33 0
352 -351 -721 0
-352 351 0
-352 721 0
353 -840 -350 0
-353 840 0
-353 350 0
354 -729 -755 0
-354 729 0
-354 755 0
355 -354 -10 0
-355 354 0
-355 10 0
356 -841 -353 0
-356 841 0
-356 353 0
357 -46 -44 0
-357 46 0
-357 44 0
358 -357 -49 0
-358 357 0
-358 49 0
359 -842 -356 0
-359 842 0
-359 356 0
360 -45 -716 0
-360 45 0
-360 716 0
361 -360 -699 0
-361 360 0
-361 699 0
362 -843 -359 0
-362 843 0
-362 359 0
363 -92 -25 0
-363 92 0
-363 25 0
364 -844 -362 0
-364 844 0
-364 362 0
365 -705 -697 0
-365 705 0
-365 697 0
366 -365 -24 0
-366 365 0
-366 24 0
367 -845 -364 0
-367 845 0
-367 364 0
368 -36 -704 0
-368 36 0
-368 704 0
369 -368 -745 0
-369 368 0
-369 745 0
370 -846 -367 0
-370 846 0
-370 367 0
371 -731 -12 0
-371 731 0
-371 12 0
372 -371 -31 0
-372 371 0
-372 31 0
373 -847 -370 0
-373 847 0
-373 370 0
374 -25 -692 0
-374 25 0
-374 692 0
375 -374 -12 0
-375 374 0
-375 12 0
376 -848 -373 0
-376 848 0
-376 373 0
377 -770 -36 0
-377 770 0
-377 36 0
378 -377 -35 0
-378 377 0
-378 35 0
379 -849 -376 0
-379 849 0
-379 376 0
380 -850 -43 0
-380 850 0
-380 43 0
381 -380 -851 0
-381 380 0
-381 851 0
382 -852 -379 0
-382 852 0
-382 379 0
383 -14 -10 0
-383 14 0
-383 10 0
384 -383 -9 0
-384 383 0
-384 9 0
385 -853 -382 0
-385 853 0
-385 382 0
386 -776 -28 0
-386 776 0
-386 28 0
387 -386 -12 0
-387 386 0
-387 12 0
388 -854 -385 0
-388 854 0
-388 385 0
389 -776 -725 0
-389 776 0
-389 725 0
390 -389 -716 0
-390 389 0
-390 716 0
391 -855 -388 0
-391 855 0
-391 388 0
392 -696 -721 0
-392 696 0
-392 721 0
393 -392 -782 0
-393 392 0
-393 782 0
394 -856 -391 0
-394 856 0
-394 391 0
395 -38 -742 0
-395 38 0
-395 742 0
396 -395 -725 0
-396 395 0
-396 725 0
397 -857 -394 0
-397 857 0
-397 394 0
398 -41 -12 0
-398 41 0
-398 12 0
399 -398 -737 0
-399 398 0
-399 737 0
400 -858 -397 0
-400 858 0
-400 397 0
401 -749 -710 0
-401 749 0
-401 710 0
402 -401 -15 0
-402 401 0
-402 15 0
403 -859 -400 0
-403 859 0
-403 400 0
404 -716 -755 0
-404 716 0
-404 755 0
405 -404 -732 0
-405 404 0
-405 732 0
406 -860 -403 0
-406 860 0
-406 403 0
407 -758 -729 0
-407 758 0
-407 729 0
408 -407 -48 0
-408 407 0
-408 48 0
409 -861 -406 0
-409 861 0
-409 406 0
410 -34 -32 0
-410 34 0
-410 32 0
411 -410 -44 0
-411 410 0
-411 44 0
412 -862 -409 0
-412 862 0
-412 409 0
413 -50 -773 0
-413 50 0
-413 773 0
414 -413 -706 0
-414 413 0
-414 706 0
415 -863 -412 0
-415 863 0
-415 412 0
416 -43 -11 0
-416 43 0
-416 11 0
417 -416 -31 0
-417 416 0
-417 31 0
418 -864 -415 0
-418 864 0
-418 415 0
419 -236 -49 0
-419 236 0
-419 49 0
420 -865 -418 0
-420 865 0
-420 418 0
421 -814 -15 0
-421 814 0
-421 15 0
422 -421 -850 0
-422 421 0
-422 850 0
423 -866 -420 0
-423 866 0
-423 420 0
424 -32 -800 0
-424 32 0
-424 800 0
425 -424 -714 0
-425 424 0
-425 714 0
426 -867 -423 0
-426 867 0
-426 423 0
427 -837 -30 0
-427 837 0
-427 30 0
428 -427 -24 0
-428 427 0
-428 24 0
429 -868 -426 0
-429 868 0
-429 426 0
430 -19 -12 0
-430 19 0
-430 12 0
431 -430 -37 0
-431 430 0
-431 37 0
432 -869 -429 0
-432 869 0
-432 429 0
433 -778 -7 0
-433 778 0
-433 7 0
434 -433 -699 0
-434 433 0
-434 699 0
435 -870 -432 0
-435 870 0
-435 432 0
436 -44 -736 0
-436 44 0
-436 736 0
437 -436 -31 0
-437 436 0
-437 31 0
438 -871 -435 0
-438 871 0
-438 435 0
439 -731 -742 0
-439 731 0
-439 742 0
440 -439 -31 0
-440 439 0
-440 31 0
441 -872 -438 0
-441 872 0
-441 438 0
442 -820 -697 0
-442 820 0
-442 697 0
443 -442 -693 0
-443 442 0
-443 693 0
444 -873 -441 0
-444 873 0
-444 441 0
445 -41 -13 0
-445 41 0
-445 13 0
446 -445 -10 0
-446 445 0
-446 10 0
447 -874 -444 0
-447 874 0
-447 444 0
448 -826 -40 0
-448 826 0
-448 40 0
449 -448 -732 0
-449 448 0
-449 732 0
450 -875 -447 0
-450 875 0
-450 447 0
451 -42 -24 0
-451 42 0
-451 24 0
452 -451 -31 0
-452 451 0
-452 31 0
453 -876 -450 0
-453 876 0
-453 450 0
454 -22 -721 0
-454 22 0
-454 721 0
455 -454 -706 0
-455 454 0
-455 706 0
456 -877 -453 0
-456 877 0
-456 453 0
457 -40 -710 0
-457 40 0
-457 710 0
458 -457 -4 0
-458 457 0
-458 4 0
459 -878 -456 0
-459 878 0
-459 456 0
460 -762 -3 0
-460 762 0
-460 3 0
461 -460 -737 0
-461 460 0
-461 737 0
462 -879 -459 0
-462 879 0
-462 459 0
463 -47 -17 0
-463 47 0
-463 17 0
464 -463 -31 0
-464 463 0
-464 31 0
465 -880 -462 0
-465 880 0
-465 462 0
466 -38 -714 0
-466 38 0
-466 714 0
467 -466 -820 0
-467 466 0
-467 820 0
468 -881 -465 0
-468 881 0
-468 465 0
469 -45 -7 0
-469 45 0
-469 7 0
470 -469 -693 0
-470 469 0
-470 693 0
471 -882 -468 0
-471 882 0
-471 468 0
472 -24 -19 0
-472 24 0
-472 19 0
473 -472 -850 0
-473 472 0
-473 850 0
474 -883 -471 0
-474 883 0
-474 471 0
475 -14 -11 0
-475 14 0
-475 11 0
476 -475 -706 0
-476 475 0
-476 706 0
477 -884 -474 0
-477 884 0
-477 474 0
478 -48 -13 0
-478 48 0
-478 13 0
479 -478 -770 0
-479 478 0
-479 770 0
480 -885 -477 0
-480 885 0
-480 477 0
481 -41 -32 0
-481 41 0
-481 32 0
482 -481 -720 0
-482 481 0
-482 720 0
483 -886 -480 0
-483 886 0
-483 480 0
484 -754 -40 0
-484 754 0
-484 40 0
485 -484 -31 0
-485 484 0
-485 31 0
486 -887 -483 0
-486 887 0
-486 483 0
487 -43 -7 0
-487 43 0
-487 7 0
488 -487 -826 0
-488 487 0
-488 826 0
489 -888 -486 0
-489 888 0
-489 486 0
490 -755 -692 0
-490 755 0
-490 692 0
491 -490 -714 0
-491 490 0
-491 714 0
492 -889 -489 0
-492 889 0
-492 489 0
493 -762 -718 0
-493 762 0
-493 718 0
494 -493 -740 0
-494 493 0
-494 740 0
495 -890 -492 0
-495 890 0
-495 492 0
496 -756 -692 0
-496 756 0
-496 692 0
497 -496 -17 0
-497 496 0
-497 17 0
498 -891 -495 0
-498 891 0
-498 495 0
499 -762 -735 0
-499 762 0
-499 735 0
500 -499 -745 0
-500 499 0
-500 745 0
501 -892 -498 0
-501 892 0
-501 498 0
502 -714 -6 0
-502 714 0
-502 6 0
503 -502 -851 0
-503 502 0
-503 851 0
504 -893 -501 0
-504 893 0
-504 501 0
505 -720 -2 0
-505 720 0
-505 2 0
506 -505 -732 0
-506 505 0
-506 732 0
507 -894 -504 0
-507 894 0
-507 504 0
508 -895 -6 0
-508 895 0
-508 6 0
509 -508 -706 0
-509 508 0
-509 706 0
510 -896 -507 0
-510 896 0
-510 507 0
511 -49 -33 0
-511 49 0
-511 33 0
512 -511 -25 0
-512 511 0
-512 25 0
513 -897 -510 0
-513 897 0
-513 510 0
514 -212 -706 0
-514 212 0
-514 706 0
515 -898 -513 0
-515 898 0
-515 513 0
516 -38 -7 0
-516 38 0
-516 7 0
517 -516 -44 0
-517 516 0
-517 44 0
518 -899 -515 0
-518 899 0
-518 515 0
519 -8 -800 0
-519 8 0
-519 800 0
520 -519 -693 0
-520 519 0
-520 693 0
521 -900 -518 0
-521 900 0
-521 518 0
522 -43 -770 0
-522 43 0
-522 770 0
523 -522 -12 0
-523 522 0
-523 12 0
524 -901 -521 0
-524 901 0
-524 521 0
525 -131 -4 0
-525 131 0
-525 4 0
526 -902 -524 0
-526 902 0
-526 524 0
527 -49 -23 0
-527 49 0
-527 23 0
528 -527 -745 0
-528 527 0
-528 745 0
529 -903 -526 0
-529 903 0
-529 526 0
530 -16 -800 0
-530 16 0
-530 800 0
531 -530 -693 0
-531 530 0
-531 693 0
532 -904 -529 0
-532 904 0
-532 529 0
533 -45 -17 0
-533 45 0
-533 17 0
534 -533 -708 0
-534 533 0
-534 708 0
535 -905 -532 0
-535 905 0
-535 532 0
536 -43 -725 0
-536 43 0
-536 725 0
537 -536 -50 0
-537 536 0
-537 50 0
538 -906 -535 0
-538 906 0
-538 535 0
539 -48 -755 0
-539 48 0
-539 755 0
540 -539 -9 0
-540 539 0
-540 9 0
541 -907 -538 0
-541 907 0
-541 538 0
542 -714 -7 0
-542 714 0
-542 7 0
543 -542 -50 0
-543 542 0
-543 50 0
544 -908 -541 0
-544 908 0
-544 541 0
545 -820 -34 0
-545 820 0
-545 34 0
546 -545 -716 0
-546 545 0
-546 716 0
547 -909 -544 0
-547 909 0
-547 544 0
548 -28 -6 0
-548 28 0
-548 6 0
549 -548 -737 0
-549 548 0
-549 737 0
550 -910 -547 0
-550 910 0
-550 547 0
551 -248 -49 0
-551 248 0
-551 49 0
552 -911 -550 0
-552 911 0
-552 550 0
553 -125 -693 0
-553 125 0
-553 693 0
554 -912 -552 0
-554 912 0
-554 552 0
555 -778 -710 0
-555 778 0
-555 710 0
556 -555 -48 0
-556 555 0
-556 48 0
557 -913 -554 0
-557 913 0
-557 554 0
558 -46 -38 0
-558 46 0
-558 38 0
559 -558 -702 0
-559 558 0
-559 702 0
560 -914 -557 0
-560 914 0
-560 557 0
561 -776 -30 0
-561 776 0
-561 30 0
562 -561 -18 0
-562 561 0
-562 18 0
563 -915 -560 0
-563 915 0
-563 560 0
564 -41 -705 0
-564 41 0
-564 705 0
565 -564 -758 0
-565 564 0
-565 758 0
566 -916 -563 0
-566 916 0
-566 563 0
567 -837 -708 0
-567 837 0
-567 708 0
568 -567 -3 0
-568 567 0
-568 3 0
569 -917 -566 0
-569 917 0
-569 566 0
570 -46 -1 0
-570 46 0
-570 1 0
571 -570 -19 0
-571 570 0
-571 19 0
572 -918 -569 0
-572 918 0
-572 569 0
573 -40 -1 0
-573 40 0
-573 1 0
574 -573 -48 0
-574 573 0
-574 48 0
575 -919 -572 0
-575 919 0
-575 572 0
576 -25 -14 0
-576 25 0
-576 14 0
577 -576 -737 0
-577 576 0
-577 737 0
578 -920 -575 0
-578 920 0
-578 575 0
579 -735 -759 0
-579 735 0
-579 759 0
580 -579 -11 0
-580 579 0
-580 11 0
581 -921 -578 0
-581 921 0
-581 578 0
582 -723 -718 0
-582 723 0
-582 718 0
583 -582 -5 0
-583 582 0
-583 5 0
584 -922 -581 0
-584 922 0
-584 581 0
585 -754 -710 0
-585 754 0
-585 710 0
586 -585 -46 0
-586 585 0
-586 46 0
587 -923 -584 0
-587 923 0
-587 584 0
588 -26 -13 0
-588 26 0
-588 13 0
589 -588 -9 0
-589 588 0
-589 9 0
590 -924 -587 0
-590 924 0
-590 587 0
591 -6 -759 0
-591 6 0
-591 759 0
592 -591 -714 0
-592 591 0
-592 714 0
593 -925 -590 0
-593 925 0
-593 590 0
594 -203 -46 0
-594 203 0
-594 46 0
595 -926 -593 0
-595 926 0
-595 593 0
596 -43 -710 0
-596 43 0
-596 710 0
597 -596 -763 0
-597 596 0
-597 763 0
598 -927 -595 0
-598 927 0
-598 595 0
599 -745 -740 0
-599 745 0
-599 740 0
600 -599 -18 0
-600 599 0
-600 18 0
601 -928 -598 0
-601 928 0
-601 598 0
602 -754 -723 0
-602 754 0
-602 723 0
603 -602 -17 0
-603 602 0
-603 17 0
604 -929 -601 0
-604 929 0
-604 601 0
605 -28 -7 0
-605 28 0
-605 7 0
606 -605 -49 0
-606 605 0
-606 49 0
607 -930 -604 0
-607 930 0
-607 604 0
608 -773 -718 0
-608 773 0
-608 718 0
609 -608 -756 0
-609 608 0
-609 756 0
610 -931 -607 0
-610 931 0
-610 607 0
611 -22 -4 0
-611 22 0
-611 4 0
612 -611 -696 0
-612 611 0
-612 696 0
613 -932 -610 0
-613 932 0
-613 610 0
614 -24 -697 0
-614 24 0
-614 697 0
615 -614 -19 0
-615 614 0
-615 19 0
616 -933 -613 0
-616 933 0
-616 613 0
617 -702 -2 0
-617 702 0
-617 2 0
618 -617 -693 0
-618 617 0
-618 693 0
619 -934 -616 0
-619 934 0
-619 616 0
620 -155 -696 0
-620 155 0
-620 696 0
621 -935 -619 0
-621 935 0
-621 619 0
622 -742 -7 0
-622 742 0
-622 7 0
623 -622 -22 0
-623 622 0
-623 22 0
624 -936 -621 0
-624 936 0
-624 621 0
625 -40 -697 0
-625 40 0
-625 697 0
626 -625 -721 0
-626 625 0
-626 721 0
627 -937 -624 0
-627 937 0
-627 624 0
628 -742 -14 0
-628 742 0
-628 14 0
629 -628 -47 0
-629 628 0
-629 47 0
630 -938 -627 0
-630 938 0
-630 627 0
631 -729 -14 0
-631 729 0
-631 14 0
632 -631 -45 0
-632 631 0
-632 45 0
633 -939 -630 0
-633 939 0
-633 630 0
634 -755 -782 0
-634 755 0
-634 782 0
635 -634 -745 0
-635 634 0
-635 745 0
636 -940 -633 0
-636 940 0
-636 633 0
637 -20 -10 0
-637 20 0
-637 10 0
638 -637 -1 0
-638 637 0
-638 1 0
639 -941 -636 0
-639 941 0
-639 636 0
640 -43 -718 0
-640 43 0
-640 718 0
641 -640 -18 0
-641 640 0
-641 18 0
642 -942 -639 0
-642 942 0
-642 639 0
643 -45 -40 0
-643 45 0
-643 40 0
644 -643 -737 0
-644 643 0
-644 737 0
645 -943 -642 0
-645 943 0
-645 642 0
646 -33 -7 0
-646 33 0
-646 7 0
647 -646 -762 0
-647 646 0
-647 762 0
648 -944 -645 0
-648 944 0
-648 645 0
649 -735 -27 0
-649 735 0
-649 27 0
650 -649 -39 0
-650 649 0
-650 39 0
651 -945 -648 0
-651 945 0
-651 648 0
652 -12 -736 0
-652 12 0
-652 736 0
653 -652 -745 0
-653 652 0
-653 745 0
654 -946 -651 0
-654 946 0
-654 651 0
655 -723 -697 0
-655 723 0
-655 697 0
656 -655 -782 0
-656 655 0
-656 782 0
657 -947 -654 0
-657 947 0
-657 654 0
658 -749 -800 0
-658 749 0
-658 800 0
659 -658 -770 0
-659 658 0
-659 770 0
660 -948 -657 0
-660 948 0
-660 657 0
661 -33 -778 0
-661 33 0
-661 778 0
662 -661 -14 0
-662 661 0
-662 14 0
663 -949 -660 0
-663 949 0
-663 660 0
664 -104 -37 0
-664 104 0
-664 37 0
665 -950 -663 0
-665 950 0
-665 663 0
666 -778 -17 0
-666 778 0
-666 17 0
667 -666 -740 0
-667 666 0
-667 740 0
668 -951 -665 0
-668 951 0
-668 665 0
669 -773 -5 0
-669 773 0
-669 5 0
670 -669 -12 0
-670 669 0
-670 12 0
671 -952 -668 0
-671 952 0
-671 668 0
672 -776 -729 0
-672 776 0
-672 729 0
673 -672 -692 0
-673 672 0
-673 692 0
674 -953 -671 0
-674 953 0
-674 671 0
675 -35 -696 0
-675 35 0
-675 696 0
676 -675 -699 0
-676 675 0
-676 699 0
677 -954 -674 0
-677 954 0
-677 674 0
678 -30 -12 0
-678 30 0
-678 12 0
679 -678 -3 0
-679 678 0
-679 3 0
680 -955 -677 0
-680 955 0
-680 677 0
681 -710 -692 0
-681 710 0
-681 692 0
682 -681 -23 0
-682 681 0
-682 23 0
683 -956 -680 0
-683 956 0
-683 680 0
684 -731 -708 0
-684 731 0
-684 708 0
685 -684 -851 0
-685 684 0
-685 851 0
686 -957 -683 0
-686 957 0
-686 683 0
687 -41 -725 0
-687 41 0
-687 725 0
688 -687 -770 0
-688 687 0
-688 770 0
689 -958 -686 0
-689 958 0
-689 686 0
690 -354 -782 0
-690 354 0
-690 782 0
691 -959 -689 0
-691 959 0
-691 689 0
-692 -2 0
692 2 0
-693 -3 0
693 3 0
-694 -54 0
694 54 0
-695 -52 0
695 52 0
-696 -8 0
696 8 0
-697 -7 0
697 7 0
-698 -57 0
698 57 0
-699 -12 0
699 12 0
-700 -60 0
700 60 0
-701 -14 0
701 14 0
-702 -15 0
702 15 0
-703 -63 0
703 63 0
-704 -17 0
704 17 0
-705 -16 0
705 16 0
-706 -18 0
706 18 0
-707 -66 0
707 66 0
-708 -19 0
708 19 0
-709 -69 0
709 69 0
-710 -20 0
710 20 0
-711 -72 0
711 72 0
-712 -75 0
712 75 0
-713 -78 0
713 78 0
-714 -23 0
714 23 0
-715 -81 0
715 81 0
-716 -25 0
716 25 0
-717 -84 0
717 84 0
-718 -24 0
718 24 0
-719 -87 0
719 87 0
-720 -10 0
720 10 0
-721 -6 0
721 6 0
-722 -90 0
722 90 0
-723 -27 0
723 27 0
-724 -93 0
724 93 0
-725 -29 0
725 29 0
-726 -96 0
726 96 0
-727 -99 0
727 99 0
-728 -102 0
728 102 0
-729 -32 0
729 32 0
-730 -105 0
730 105 0
-731 -33 0
731 33 0
-732 -35 0
732 35 0
-733 -108 0
733 108 0
-734 -111 0
734 111 0
-735 -36 0
735 36 0
-736 -5 0
736 5 0
-737 -37 0
737 37 0
-738 -114 0
738 114 0
-739 -117 0
739 117 0
-740 -9 0
740 9 0
-741 -120 0
741 120 0
-742 -28 0
742 28 0
-743 -123 0
743 123 0
-744 -126 0
744 126 0
-745 -31 0
745 31 0
-746 -129 0
746 129 0
-747 -132 0
747 132 0
-748 -135 0
748 135 0
-749 -38 0
749 38 0
-750 -138 0
750 138 0
-751 -141 0
751 141 0
-752 -144 0
752 144 0
-753 -147 0
753 147 0
-754 -41 0
754 41 0
-755 -13 0
755 13 0
-756 -22 0
756 22 0
-757 -150 0
757 150 0
-758 -42 0
758 42 0
-759 -4 0
759 4 0
-760 -153 0
760 153 0
-761 -156 0
761 156 0
-762 -43 0
762 43 0
-763 -44 0
763 44 0
-764 -159 0
764 159 0
-765 -162 0
765 162 0
-766 -165 0
766 165 0
-767 -168 0
767 168 0
-768 -171 0
768 171 0
-769 -174 0
769 174 0
-770 -39 0
770 39 0
-771 -177 0
771 177 0
-772 -180 0
772 180 0
-773 -30 0
773 30 0
-774 -183 0
774 183 0
-775 -186 0
775 186 0
-776 -34 0
776 34 0
-777 -189 0
777 189 0
-778 -21 0
778 21 0
-779 -192 0
779 192 0
-780 -195 0
780 195 0
-781 -198 0
781 198 0
-782 -11 0
782 11 0
-783 -201 0
783 201 0
-784 -204 0
784 204 0
-785 -45 0
785 45 0
-786 -207 0
786 207 0
-787 -210 0
787 210 0
-788 -213 0
788 213 0
-789 -216 0
789 216 0
-790 -219 0
790 219 0
-791 -222 0
791 222 0
-792 -225 0
792 225 0
-793 -228 0
793 228 0
-794 -231 0
794 231 0
-795 -234 0
795 234 0
-796 -237 0
796 237 0
-797 -240 0
797 240 0
-798 -243 0
798 243 0
-799 -246 0
799 246 0
-800 -1 0
800 1 0
-801 -249 0
801 249 0
-802 -252 0
802 252 0
-803 -254 0
803 254 0
-804 -257 0
804 257 0
-805 -260 0
805 260 0
-806 -263 0
806 263 0
-807 -266 0
807 266 0
-808 -269 0
808 269 0
-809 -272 0
809 272 0
-810 -275 0
810 275 0
-811 -278 0
811 278 0
-812 -281 0
812 281 0
-813 -284 0
813 284 0
-814 -26 0
814 26 0
-815 -287 0
815 287 0
-816 -290 0
816 290 0
-817 -293 0
817 293 0
-818 -296 0
818 296 0
-819 -299 0
819 299 0
-820 -49 0
820 49 0
-821 -302 0
821 302 0
-822 -305 0
822 305 0
-823 -308 0
823 308 0
-824 -311 0
824 311 0
-825 -314 0
825 314 0
-826 -48 0
826 48 0
-827 -317 0
827 317 0
-828 -320 0
828 320 0
-829 -323 0
829 323 0
-830 -326 0
830 326 0
-831 -329 0
831 329 0
-832 -331 0
832 331 0
-833 -334 0
833 334 0
-834 -337 0
834 337 0
-835 -340 0
835 340 0
-836 -343 0
836 343 0
-837 -40 0
837 40 0
-838 -346 0
838 346 0
-839 -349 0
839 349 0
-840 -352 0
840 352 0
-841 -355 0
841 355 0
-842 -358 0
842 358 0
-843 -361 0
843 361 0
-844 -363 0
844 363 0
-845 -366 0
845 366 0
-846 -369 0
846 369 0
-847 -372 0
847 372 0
-848 -375 0
848 375 0
-849 -378 0
849 378 0
-850 -50 0
850 50 0
-851 -47 0
851 47 0
-852 -381 0
852 381 0
-853 -384 0
853 384 0
-854 -387 0
854 387 0
-855 -390 0
855 390 0
-856 -393 0
856 393 0
-857 -396 0
857 396 0
-858 -399 0
858 399 0
-859 -402 0
859 402 0
-860 -405 0
860 405 0
-861 -408 0
861 408 0
-862 -411 0
862 411 0
-863 -414 0
863 414 0
-864 -417 0
864 417 0
-865 -419 0
865 419 0
-866 -422 0
866 422 0
-867 -425 0
867 425 0
-868 -428 0
868 428 0
-869 -431 0
869 431 0
-870 -434 0
870 434 0
-871 -437 0
871 437 0
-872 -440 0
872 440 0
-873 -443 0
873 443 0
-874 -446 0
874 446 0
-875 -449 0
875 449 0
-876 -452 0
876 452 0
-877 -455 0
877 455 0
-878 -458 0
878 458 0
-879 -461 0
879 461 0
-880 -464 0
880 464 0
-881 -467 0
881 467 0
-882 -470 0
882 470 0
-883 -473 0
883 473 0
-884 -476 0
884 476 0
-885 -479 0
885 479 0
-886 -482 0
886 482 0
-887 -485 0
887 485 0
-888 -488 0
888 488 0
-889 -491 0
889 491 0
-890 -494 0
890 494 0
-891 -497 0
891 497 0
-892 -500 0
892 500 0
-893 -503 0
893 503 0
-894 -506 0
894 506 0
-895 -46 0
895 46 0
-896 -509 0
896 509 0
-897 -512 0
897 512 0
-898 -514 0
898 514 0
-899 -517 0
899 517 0
-900 -520 0
900 520 0
-901 -523 0
901 523 0
-902 -525 0
902 525 0
-903 -528 0
903 528 0
-904 -531 0
904 531 0
-905 -534 0
905 534 0
-906 -537 0
906 537 0
-907 -540 0
907 540 0
-908 -543 0
908 543 0
-909 -546 0
909 546 0
-910 -549 0
910 549 0
-911 -551 0
911 551 0
-912 -553 0
912 553 0
-913 -556 0
913 556 0
-914 -559 0
914 559 0
-915 -562 0
915 562 0
-916 -565 0
916 565 0
-917 -568 0
917 568 0
-918 -571 0
918 571 0
-919 -574 0
919 574 0
-920 -577 0
920 577 0
-921 -580 0
921 580 0
-922 -583 0
922 583 0
-923 -586 0
923 586 0
-924 -589 0
924 589 0
-925 -592 0
925 592 0
-926 -594 0
926 594 0
-927 -597 0
927 597 0
-928 -600 0
928 600 0
-929 -603 0
929 603 0
-930 -606 0
930 606 0
-931 -609 0
931 609 0
-932 -612 0
932 612 0
-933 -615 0
933 615 0
-934 -618 0
934 618 0
-935 -620 0
935 620 0
-936 -623 0
936 623 0
-937 -626 0
937 626 0
-938 -629 0
938 629 0
-939 -632 0
939 632 0
-940 -635 0
940 635 0
-941 -638 0
941 638 0
-942 -641 0
942 641 0
-943 -644 0
943 644 0
-944 -647 0
944 647 0
-945 -650 0
945 650 0
-946 -653 0
946 653 0
-947 -656 0
947 656 0
-948 -659 0
948 659 0
-949 -662 0
949 662 0
-950 -664 0
950 664 0
-951 -667 0
951 667 0
-952 -670 0
952 670 0
-953 -673 0
953 673 0
-954 -676 0
954 676 0
-955 -679 0
955 679 0
-956 -682 0
956 682 0
-957 -685 0
957 685 0
-958 -688 0
958 688 0
-959 -690 0
959 690 0
691 0
